unknown
(model
; cardinality of BoundSet is 3
(declare-sort BoundSet 0)
; rep: @uc_BoundSet_0
; rep: @uc_BoundSet_1
; rep: @uc_BoundSet_2
(declare-sort UnboundSet 0)
(define-fun IsBehind ((BOUND_VARIABLE_375 BoundSet) (BOUND_VARIABLE_376 BoundSet)) Bool true)
(define-fun HasBars ((BOUND_VARIABLE_381 BoundSet)) Bool true)
(define-fun IsInFrontOf ((BOUND_VARIABLE_375 BoundSet) (BOUND_VARIABLE_376 BoundSet)) Bool false)
)
